80 80
28 76 1
20 90 1
66 50 1
63 77 1
27 12 1
89 22 1
69 1 1
89 19 1
37 78 1
73 19 1
81 15 1
76 23 1
72 38 1
98 79 1
100 89 1
9 38 1
44 19 1
99 50 1
93 26 1
75 15 1
93 11 1
58 83 1
94 24 1
87 4 1
96 65 1
87 27 1
68 34 1
72 4 1
15 87 1
76 34 1
29 69 1
100 16 1
97 8 1
12 66 1
76 39 1
51 90 1
92 48 1
79 31 1
75 34 1
76 25 1
95 48 1
92 22 1
82 41 1
93 22 1
71 11 1
79 25 1
45 9 1
84 31 1
35 35 1
74 39 1
85 39 1
75 50 1
82 21 1
77 16 1
81 30 1
90 33 1
82 18 1
83 53 1
86 34 1
71 27 1
91 27 1
60 52 1
98 48 1
94 32 1
11 99 1
50 75 1
27 83 1
91 49 1
98 30 1
66 37 1
68 62 1
96 28 1
96 24 1
14 80 1
80 13 1
12 18 1
67 30 1
38 18 1
37 25 1
42 20 1
100 100 
100 100 
100 100 
100 100 
100 100 
100 100 
100 100 
100 100 
100 100 
100 100 
100 100 
100 100 
100 100 
100 100 
100 100 
100 100 
100 100 
100 100 
100 100 
100 100 
100 100 
100 100 
100 100 
100 100 
100 100 
100 100 
100 100 
100 100 
100 100 
100 100 
100 100 
100 100 
100 100 
100 100 
100 100 
100 100 
100 100 
100 100 
100 100 
100 100 
100 100 
100 100 
100 100 
100 100 
100 100 
100 100 
100 100 
100 100 
100 100 
100 100 
100 100 
100 100 
100 100 
100 100 
100 100 
100 100 
100 100 
100 100 
100 100 
100 100 
100 100 
100 100 
100 100 
100 100 
100 100 
100 100 
100 100 
100 100 
100 100 
100 100 
100 100 
100 100 
100 100 
100 100 
100 100 
100 100 
100 100 
100 100 
100 100 
100 100 
